4 
5  33 55 
6  20 40 59 
7  13 28 42 58 
8  13 28 43 58 
9  13 28 42 57 
10  12 27 42 57 
11  12 27 42 57 
12  12 27 42 57 
13  12 27 43 58 
14  13 28 43 58 
15  13 29 44 59 
16  14 29 44 59 
17  14 29 44 59 
18  14 29 44 59 
19  14 29 44 59 
20  14 29 44 
21  00 14 29 44 59 
22  14 29 46 
23  00 15 39 
0 
